12,0	0,0	18,4	13,9	0,0	0,0	0,0	0,0	0,0	16,7
5,2	7,2	0,0	14,9	13,5	0,0	0,0	5,3	0,0	0,0
0,0	0,0	6,5	0,0	17,7	5,5	0,0	0,0	5,3	0,0
17,7	0,0	9,0	0,0	0,0	0,0	18,1	0,0	0,0	0,0
0,0	8,3	0,0	18,6	12,2	0,0	0,0	14,4	0,0	0,0
0,0	11,6	12,0	0,0	12,4	6,3	0,0	0,0	12,1	0,0
0,0	18,1	0,0	17,8	0,0	0,0	18,9	0,0	0,0	13,5
16,7	0,0	17,1	0,0	0,0	0,0	0,0	0,0	0,0	18,5
0,0	18,4	0,0	12,5	10,1	0,0	0,0	16,8	0,0	0,0
0,0	0,0	12,1	0,0	0,0	7,5	6,2	0,0	0,0	14,2
0,0	6,4	0,0	0,0	17,0	0,0	11,2	0,0	15,8	10,0
14,3	0,0	15,7	0,0	18,1	0,0	20,0	18,4	8,9	0,0
0,0	17,0	0,0	0,0	0,0	11,2	0,0	17,9	16,5	16,6
6,6	17,1	13,9	0,0	0,0	12,4	0,0	11,2	13,0	0,0
5,8	0,0	5,4	0,0	6,5	6,8	15,9	16,7	0,0	0,0
0,0	17,4	0,0	7,4	0,0	6,7	0,0	5,8	0,0	0,0
18,6	0,0	18,9	10,3	14,4	0,0	0,0	12,2	0,0	0,0
0,0	0,0	5,6	0,0	0,0	16,2	12,2	0,0	11,5	12,6
10,0	0,0	0,0	9,0	19,0	12,8	12,3	8,0	0,0	8,5
0,0	10,9	0,0	15,1	0,0	0,0	5,1	0,0	13,3	12,3
									
2,9	4,3	2,7	3,3	4,7	3,6	2,7	2,8	3,5	4,8
